n = 15;
lu = [|-144, 73
      |-136, -75
      |-5, -3
      |-19, -9
      |-111, -106
      |-79, 87
      |79, 130
      |165, 200
      |-120, -118
      |34, 106
      |-134, 80
      |151, 168
      |-128, -91
      |-222, 215
      |-126, 102|];
